GLPSOL--GLPK LP/MIP Solver 5.0
Parameter(s) specified in the command line:
 --lp ../modeles/2_369.lp --log 2_369.log
Reading problem data from '../modeles/2_369.lp'...
747 rows, 1480 columns, 5176 non-zeros
738 integer variables, all of which are binary
2235 lines were read
GLPK Integer Optimizer 5.0
747 rows, 1480 columns, 5176 non-zeros
738 integer variables, all of which are binary
Preprocessing...
732 constraint coefficient(s) were reduced
747 rows, 1478 columns, 5174 non-zeros
738 integer variables, all of which are binary
Scaling...
 A: min|aij| =  2.938e-05  max|aij| =  4.000e+00  ratio =  1.362e+05
GM: min|aij| =  5.206e-02  max|aij| =  1.921e+01  ratio =  3.690e+02
EQ: min|aij| =  2.710e-03  max|aij| =  1.000e+00  ratio =  3.690e+02
2N: min|aij| =  1.880e-03  max|aij| =  1.775e+00  ratio =  9.439e+02
Constructing initial basis...
Size of triangular part is 747
Solving LP relaxation...
GLPK Simplex Optimizer 5.0
747 rows, 1478 columns, 5174 non-zeros
      0: obj =   4.000000000e+00 inf =   9.500e+00 (5)
     41: obj =   4.999742949e-01 inf =   0.000e+00 (0)
*   161: obj =  -1.414180738e+00 inf =   5.967e-17 (0)
OPTIMAL LP SOLUTION FOUND
Integer optimization begins...
Long-step dual simplex will be used
+   161: mip =     not found yet >=              -inf        (1; 0)
+   376: >>>>>  -1.414180738e+00 >=  -1.414180738e+00   0.0% (215; 0)
+   376: mip =  -1.414180738e+00 >=     tree is empty   0.0% (0; 429)
INTEGER OPTIMAL SOLUTION FOUND
Time used:   0.2 secs
Memory used: 2.2 Mb (2287444 bytes)
